100
    1    18    18
    2    95    95
    3    19    19
    4    67    67
    5     5     5
    6    77    77
    7    26    26
    8    21    21
    9    15    15
   10    22    22
   11    64    64
   12    74    74
   13    28    28
   14    22    22
   15    18    18
   16    92    92
   17    60    60
   18     7     7
   19    21    21
   20    63    63
   21    10    10
   22    64    64
   23    58    58
   24    64    64
   25     3     3
   26    20    20
   27    71    71
   28    11    11
   29    67    67
   30     4     4
   31    91    91
   32    97    97
   33    72    72
   34    27    27
   35     7     7
   36    11    11
   37    24    24
   38    59    59
   39    49    49
   40    54    54
   41    64    64
   42    46    46
   43    78    78
   44    72    72
   45    47    47
   46    37    37
   47    57    57
   48    81    81
   49    19    19
   50    46    46
   51     7     7
   52     7     7
   53     1     1
   54    33    33
   55    26    26
   56    76    76
   57    60    60
   58    11    11
   59    46    46
   60    53    53
   61    80    80
   62    98    98
   63    42    42
   64    21    21
   65    46    46
   66    89    89
   67     8     8
   68    56    56
   69     3     3
   70    44    44
   71    76    76
   72    82    82
   73    55    55
   74    50    50
   75    47    47
   76    96    96
   77    79    79
   78    55    55
   79    97    97
   80    76    76
   81     2     2
   82    69    69
   83    20    20
   84    50    50
   85    65    65
   86    14    14
   87    12    12
   88    92    92
   89    82    82
   90    95    95
   91    53    53
   92    36    36
   93    40    40
   94     5     5
   95    72    72
   96    45    45
   97    50    50
   98    45    45
   99    23    23
  100    90    90
2352
